(set-option :produce-models true)
(set-logic QF_LIA)
(declare-fun W_0_1 () Int)
(declare-fun P_0_1 () Int)
(declare-fun W_0_2 () Int)
(declare-fun P_0_2 () Int)
(declare-fun W_0_3 () Int)
(declare-fun P_0_3 () Int)
(declare-fun W_1_2 () Int)
(declare-fun P_1_2 () Int)
(declare-fun W_1_3 () Int)
(declare-fun P_1_3 () Int)
(declare-fun W_2_3 () Int)
(declare-fun P_2_3 () Int)
(assert (and (>= W_0_1 0) (< W_0_1 3)))
(assert (and (>= P_0_1 0) (< P_0_1 2)))
(assert (and (>= W_0_2 0) (< W_0_2 3)))
(assert (and (>= P_0_2 0) (< P_0_2 2)))
(assert (and (>= W_0_3 0) (< W_0_3 3)))
(assert (and (>= P_0_3 0) (< P_0_3 2)))
(assert (and (>= W_1_2 0) (< W_1_2 3)))
(assert (and (>= P_1_2 0) (< P_1_2 2)))
(assert (and (>= W_1_3 0) (< W_1_3 3)))
(assert (and (>= P_1_3 0) (< P_1_3 2)))
(assert (and (>= W_2_3 0) (< W_2_3 3)))
(assert (and (>= P_2_3 0) (< P_2_3 2)))
(assert (= (+ (ite (= W_0_1 0) 1 0) (ite (= W_0_2 0) 1 0) (ite (= W_0_3 0) 1 0)) 1))
(assert (= (+ (ite (= W_0_1 1) 1 0) (ite (= W_0_2 1) 1 0) (ite (= W_0_3 1) 1 0)) 1))
(assert (= (+ (ite (= W_0_1 2) 1 0) (ite (= W_0_2 2) 1 0) (ite (= W_0_3 2) 1 0)) 1))
(assert (= (+ (ite (= W_0_1 0) 1 0) (ite (= W_1_2 0) 1 0) (ite (= W_1_3 0) 1 0)) 1))
(assert (= (+ (ite (= W_0_1 1) 1 0) (ite (= W_1_2 1) 1 0) (ite (= W_1_3 1) 1 0)) 1))
(assert (= (+ (ite (= W_0_1 2) 1 0) (ite (= W_1_2 2) 1 0) (ite (= W_1_3 2) 1 0)) 1))
(assert (= (+ (ite (= W_0_2 0) 1 0) (ite (= W_1_2 0) 1 0) (ite (= W_2_3 0) 1 0)) 1))
(assert (= (+ (ite (= W_0_2 1) 1 0) (ite (= W_1_2 1) 1 0) (ite (= W_2_3 1) 1 0)) 1))
(assert (= (+ (ite (= W_0_2 2) 1 0) (ite (= W_1_2 2) 1 0) (ite (= W_2_3 2) 1 0)) 1))
(assert (= (+ (ite (= W_0_3 0) 1 0) (ite (= W_1_3 0) 1 0) (ite (= W_2_3 0) 1 0)) 1))
(assert (= (+ (ite (= W_0_3 1) 1 0) (ite (= W_1_3 1) 1 0) (ite (= W_2_3 1) 1 0)) 1))
(assert (= (+ (ite (= W_0_3 2) 1 0) (ite (= W_1_3 2) 1 0) (ite (= W_2_3 2) 1 0)) 1))
(assert (= (+ (ite (= W_0_1 0) 1 0) (ite (= W_0_2 0) 1 0) (ite (= W_0_3 0) 1 0) (ite (= W_1_2 0) 1 0) (ite (= W_1_3 0) 1 0) (ite (= W_2_3 0) 1 0)) 2))
(assert (= (+ (ite (= W_0_1 1) 1 0) (ite (= W_0_2 1) 1 0) (ite (= W_0_3 1) 1 0) (ite (= W_1_2 1) 1 0) (ite (= W_1_3 1) 1 0) (ite (= W_2_3 1) 1 0)) 2))
(assert (= (+ (ite (= W_0_1 2) 1 0) (ite (= W_0_2 2) 1 0) (ite (= W_0_3 2) 1 0) (ite (= W_1_2 2) 1 0) (ite (= W_1_3 2) 1 0) (ite (= W_2_3 2) 1 0)) 2))
(assert (= (+ (ite (and (= W_0_1 0) (= P_0_1 0)) 1 0) (ite (and (= W_0_2 0) (= P_0_2 0)) 1 0) (ite (and (= W_0_3 0) (= P_0_3 0)) 1 0) (ite (and (= W_1_2 0) (= P_1_2 0)) 1 0) (ite (and (= W_1_3 0) (= P_1_3 0)) 1 0) (ite (and (= W_2_3 0) (= P_2_3 0)) 1 0)) 1))
(assert (= (+ (ite (and (= W_0_1 0) (= P_0_1 1)) 1 0) (ite (and (= W_0_2 0) (= P_0_2 1)) 1 0) (ite (and (= W_0_3 0) (= P_0_3 1)) 1 0) (ite (and (= W_1_2 0) (= P_1_2 1)) 1 0) (ite (and (= W_1_3 0) (= P_1_3 1)) 1 0) (ite (and (= W_2_3 0) (= P_2_3 1)) 1 0)) 1))
(assert (= (+ (ite (and (= W_0_1 1) (= P_0_1 0)) 1 0) (ite (and (= W_0_2 1) (= P_0_2 0)) 1 0) (ite (and (= W_0_3 1) (= P_0_3 0)) 1 0) (ite (and (= W_1_2 1) (= P_1_2 0)) 1 0) (ite (and (= W_1_3 1) (= P_1_3 0)) 1 0) (ite (and (= W_2_3 1) (= P_2_3 0)) 1 0)) 1))
(assert (= (+ (ite (and (= W_0_1 1) (= P_0_1 1)) 1 0) (ite (and (= W_0_2 1) (= P_0_2 1)) 1 0) (ite (and (= W_0_3 1) (= P_0_3 1)) 1 0) (ite (and (= W_1_2 1) (= P_1_2 1)) 1 0) (ite (and (= W_1_3 1) (= P_1_3 1)) 1 0) (ite (and (= W_2_3 1) (= P_2_3 1)) 1 0)) 1))
(assert (= (+ (ite (and (= W_0_1 2) (= P_0_1 0)) 1 0) (ite (and (= W_0_2 2) (= P_0_2 0)) 1 0) (ite (and (= W_0_3 2) (= P_0_3 0)) 1 0) (ite (and (= W_1_2 2) (= P_1_2 0)) 1 0) (ite (and (= W_1_3 2) (= P_1_3 0)) 1 0) (ite (and (= W_2_3 2) (= P_2_3 0)) 1 0)) 1))
(assert (= (+ (ite (and (= W_0_1 2) (= P_0_1 1)) 1 0) (ite (and (= W_0_2 2) (= P_0_2 1)) 1 0) (ite (and (= W_0_3 2) (= P_0_3 1)) 1 0) (ite (and (= W_1_2 2) (= P_1_2 1)) 1 0) (ite (and (= W_1_3 2) (= P_1_3 1)) 1 0) (ite (and (= W_2_3 2) (= P_2_3 1)) 1 0)) 1))
(assert (<= (+ (ite (= P_0_1 0) 1 0) (ite (= P_0_2 0) 1 0) (ite (= P_0_3 0) 1 0)) 2))
(assert (<= (+ (ite (= P_0_1 1) 1 0) (ite (= P_0_2 1) 1 0) (ite (= P_0_3 1) 1 0)) 2))
(assert (<= (+ (ite (= P_0_1 0) 1 0) (ite (= P_1_2 0) 1 0) (ite (= P_1_3 0) 1 0)) 2))
(assert (<= (+ (ite (= P_0_1 1) 1 0) (ite (= P_1_2 1) 1 0) (ite (= P_1_3 1) 1 0)) 2))
(assert (<= (+ (ite (= P_0_2 0) 1 0) (ite (= P_1_2 0) 1 0) (ite (= P_2_3 0) 1 0)) 2))
(assert (<= (+ (ite (= P_0_2 1) 1 0) (ite (= P_1_2 1) 1 0) (ite (= P_2_3 1) 1 0)) 2))
(assert (<= (+ (ite (= P_0_3 0) 1 0) (ite (= P_1_3 0) 1 0) (ite (= P_2_3 0) 1 0)) 2))
(assert (<= (+ (ite (= P_0_3 1) 1 0) (ite (= P_1_3 1) 1 0) (ite (= P_2_3 1) 1 0)) 2))
(check-sat)
(get-model)